
  22   10
  10   10   10   10   10   10   10   10   10   10

   0   0   0   0   0   0   0   0   0   0   0   1 2 
  10   0   0   0   0   0   0   0  10   0   0   2 6 3 
   6   0   0   0   0   0   0   0   0  10   0   1 4 
   8   0   0   0   0   0  10   0   0   0   0   1 5 
   9   0   0   0   0  10   0   0   0   0   0   1 7 
   1   0   0   0  10   0   0   0   0   0   0   1 7 
   2   0  10   0   0   0   0   0   0   0   0   1 8 
   9   0   0   0   0   0   0   0   0   0  10   1 9 
  10   0   0   0   0   0   0   0  10   0   0   1 10 
   2   0   0   0   0   0   0   0   0   0  10   1 11 
   1   0  10   0   0   0   0   0   0   0   0   1 12 
   2   0  10   0   0   0   0   0   0   0   0   1 13 
   4   0   0   0   0   0   0   0   0   0  10   1 14 
   9   0   0   0  10   0   0   0   0   0   0   1 15 
   8   0  10   0   0   0   0   0   0   0   0   1 16 
   3   0   0   0   0  10   0   0   0   0   0   2 21 17 
   4   0   0  10   0   0   0   0   0   0   0   1 18 
   9   0   0  10   0   0   0   0   0   0   0   1 19 
  10   0   0   0   0   0   0   0   0   0  10   1 20 
   7   0  10   0   0   0   0   0   0   0   0   1 22
   5   0   0   0   0   0   0   0  10   0   0   1 22
   0   0   0   0   0   0   0   0   0   0   0   0 
